
  22   10
  10   10   10   10   10   10   10   10   10   10

   0   0   0   0   0   0   0   0   0   0   0   2 2 4 
   1  10  10  10  10  10  10  10  10  10  10   2 7 3 
   2  10  10  10  10  10  10  10  10  10  10   1 5 
   7  10  10  10  10  10  10  10  10  10  10   1 5 
  10  10  10  10  10  10  10  10  10  10  10   3 11 9 6 
   8  10  10  10  10  10  10  10  10  10  10   3 17 12 8 
   3  10  10  10  10  10  10  10  10  10  10   3 13 11 10 
   3  10  10  10  10  10  10  10  10  10  10   2 20 10 
   8  10  10  10  10  10  10  10  10  10  10   2 17 13 
   8  10  10  10  10  10  10  10  10  10  10   2 19 14 
   7  10  10  10  10  10  10  10  10  10  10   2 20 15 
   9  10  10  10  10  10  10  10  10  10  10   2 19 15 
   3  10  10  10  10  10  10  10  10  10  10   3 21 19 18 
  10  10  10  10  10  10  10  10  10  10  10   1 15 
  10  10  10  10  10  10  10  10  10  10  10   1 16 
   6  10  10  10  10  10  10  10  10  10  10   1 18 
   7  10  10  10  10  10  10  10  10  10  10   1 20 
   4  10  10  10  10  10  10  10  10  10  10   1 22
   7  10  10  10  10  10  10  10  10  10  10   1 22
   2  10  10  10  10  10  10  10  10  10  10   1 22
  10  10  10  10  10  10  10  10  10  10  10   1 22
   0   0   0   0   0   0   0   0   0   0   0   0 
